max_credits = 6;
n_courses = 2;
n_students = 2;

course_names = [
  "MINERIA DE DATOS",
  "MULTIMEDIA"
];

course_codes = [
  "MD",
  "MM"
];

capacity = [1, 1];
credits = [6, 6];

students = [
  "alumnoA@upm.es",
  "alumnoB@upm.es"
];

pref = array2d(1..n_students, 1..n_courses,
[
  % MD, MM
     3,  0,   % Alumno A solo quiere MD
     3,  3    % Alumno B quiere MD y MM
]);

avg_grade_100 = [
  700,
  700
];

previous_rejections = array2d(1..n_students, 1..n_courses,
[
  % MD, MM
     0, 0,
     0, 0
]);